688769
358979
552228
582597
146663
299905
51060
888838
223510
144532
758811
573950
279393
473432
447678
98184
443988
906014
813181
130026
35453
707716
674694
928767
47630
875567
657028
74629
962458
433960
819381
310853
709245
802896
809562
120283
685337
956161
864903
746785
953082
754755
666266
99260
544731
353960
581640
461698
792194
27269
462611
239303
532102
449101
376472
423811
816817
196043
199556
175457
444416
357947
251431
210278
176519
251398
735777
776700
385201
74265
582136
411675
3366
857569
612812
129747
963653
488229
440161
746360
363536
86975
410204
919978
164775
192632
705481
61375
978093
696063
999769
92688
982599
902
315817
247325
969667
64186
98493
438557
